c File: flat75_3_0.col
c
c SOURCE: Joseph Culberson (joe@cs.ualberta.ca)
c DESCRIPTION: Quasi-random coloring problem
c              generated with flatness = 0
c                             probability = 0.096
c                             known coloring = 3
c                             random seed = 1033
c              Creation Date:  Wed Feb 24 10:41:56 1999
c Maximum degree = 8 Minimum degree = 0
c COLOR VERIFICATION: Using the permuted order
c under simple greedy yields the specified
c coloring number
c Color = 3 specified partitions = 3
c p edge 75 180
c cnf created by edge2cnf
p cnf 225 840
-1 -2 0
-1 -3 0
-2 -3 0
1 2 3 0
-4 -5 0
-4 -6 0
-5 -6 0
4 5 6 0
-7 -8 0
-7 -9 0
-8 -9 0
7 8 9 0
-10 -11 0
-10 -12 0
-11 -12 0
10 11 12 0
-13 -14 0
-13 -15 0
-14 -15 0
13 14 15 0
-16 -17 0
-16 -18 0
-17 -18 0
16 17 18 0
-19 -20 0
-19 -21 0
-20 -21 0
19 20 21 0
-22 -23 0
-22 -24 0
-23 -24 0
22 23 24 0
-25 -26 0
-25 -27 0
-26 -27 0
25 26 27 0
-28 -29 0
-28 -30 0
-29 -30 0
28 29 30 0
-31 -32 0
-31 -33 0
-32 -33 0
31 32 33 0
-34 -35 0
-34 -36 0
-35 -36 0
34 35 36 0
-37 -38 0
-37 -39 0
-38 -39 0
37 38 39 0
-40 -41 0
-40 -42 0
-41 -42 0
40 41 42 0
-43 -44 0
-43 -45 0
-44 -45 0
43 44 45 0
-46 -47 0
-46 -48 0
-47 -48 0
46 47 48 0
-49 -50 0
-49 -51 0
-50 -51 0
49 50 51 0
-52 -53 0
-52 -54 0
-53 -54 0
52 53 54 0
-55 -56 0
-55 -57 0
-56 -57 0
55 56 57 0
-58 -59 0
-58 -60 0
-59 -60 0
58 59 60 0
-61 -62 0
-61 -63 0
-62 -63 0
61 62 63 0
-64 -65 0
-64 -66 0
-65 -66 0
64 65 66 0
-67 -68 0
-67 -69 0
-68 -69 0
67 68 69 0
-70 -71 0
-70 -72 0
-71 -72 0
70 71 72 0
-73 -74 0
-73 -75 0
-74 -75 0
73 74 75 0
-76 -77 0
-76 -78 0
-77 -78 0
76 77 78 0
-79 -80 0
-79 -81 0
-80 -81 0
79 80 81 0
-82 -83 0
-82 -84 0
-83 -84 0
82 83 84 0
-85 -86 0
-85 -87 0
-86 -87 0
85 86 87 0
-88 -89 0
-88 -90 0
-89 -90 0
88 89 90 0
-91 -92 0
-91 -93 0
-92 -93 0
91 92 93 0
-94 -95 0
-94 -96 0
-95 -96 0
94 95 96 0
-97 -98 0
-97 -99 0
-98 -99 0
97 98 99 0
-100 -101 0
-100 -102 0
-101 -102 0
100 101 102 0
-103 -104 0
-103 -105 0
-104 -105 0
103 104 105 0
-106 -107 0
-106 -108 0
-107 -108 0
106 107 108 0
-109 -110 0
-109 -111 0
-110 -111 0
109 110 111 0
-112 -113 0
-112 -114 0
-113 -114 0
112 113 114 0
-115 -116 0
-115 -117 0
-116 -117 0
115 116 117 0
-118 -119 0
-118 -120 0
-119 -120 0
118 119 120 0
-121 -122 0
-121 -123 0
-122 -123 0
121 122 123 0
-124 -125 0
-124 -126 0
-125 -126 0
124 125 126 0
-127 -128 0
-127 -129 0
-128 -129 0
127 128 129 0
-130 -131 0
-130 -132 0
-131 -132 0
130 131 132 0
-133 -134 0
-133 -135 0
-134 -135 0
133 134 135 0
-136 -137 0
-136 -138 0
-137 -138 0
136 137 138 0
-139 -140 0
-139 -141 0
-140 -141 0
139 140 141 0
-142 -143 0
-142 -144 0
-143 -144 0
142 143 144 0
-145 -146 0
-145 -147 0
-146 -147 0
145 146 147 0
-148 -149 0
-148 -150 0
-149 -150 0
148 149 150 0
-151 -152 0
-151 -153 0
-152 -153 0
151 152 153 0
-154 -155 0
-154 -156 0
-155 -156 0
154 155 156 0
-157 -158 0
-157 -159 0
-158 -159 0
157 158 159 0
-160 -161 0
-160 -162 0
-161 -162 0
160 161 162 0
-163 -164 0
-163 -165 0
-164 -165 0
163 164 165 0
-166 -167 0
-166 -168 0
-167 -168 0
166 167 168 0
-169 -170 0
-169 -171 0
-170 -171 0
169 170 171 0
-172 -173 0
-172 -174 0
-173 -174 0
172 173 174 0
-175 -176 0
-175 -177 0
-176 -177 0
175 176 177 0
-178 -179 0
-178 -180 0
-179 -180 0
178 179 180 0
-181 -182 0
-181 -183 0
-182 -183 0
181 182 183 0
-184 -185 0
-184 -186 0
-185 -186 0
184 185 186 0
-187 -188 0
-187 -189 0
-188 -189 0
187 188 189 0
-190 -191 0
-190 -192 0
-191 -192 0
190 191 192 0
-193 -194 0
-193 -195 0
-194 -195 0
193 194 195 0
-196 -197 0
-196 -198 0
-197 -198 0
196 197 198 0
-199 -200 0
-199 -201 0
-200 -201 0
199 200 201 0
-202 -203 0
-202 -204 0
-203 -204 0
202 203 204 0
-205 -206 0
-205 -207 0
-206 -207 0
205 206 207 0
-208 -209 0
-208 -210 0
-209 -210 0
208 209 210 0
-211 -212 0
-211 -213 0
-212 -213 0
211 212 213 0
-214 -215 0
-214 -216 0
-215 -216 0
214 215 216 0
-217 -218 0
-217 -219 0
-218 -219 0
217 218 219 0
-220 -221 0
-220 -222 0
-221 -222 0
220 221 222 0
-223 -224 0
-223 -225 0
-224 -225 0
223 224 225 0
-88 -1 0
-89 -2 0
-90 -3 0
-124 -1 0
-125 -2 0
-126 -3 0
-166 -1 0
-167 -2 0
-168 -3 0
-211 -1 0
-212 -2 0
-213 -3 0
-46 -4 0
-47 -5 0
-48 -6 0
-73 -4 0
-74 -5 0
-75 -6 0
-25 -7 0
-26 -8 0
-27 -9 0
-64 -7 0
-65 -8 0
-66 -9 0
-88 -7 0
-89 -8 0
-90 -9 0
-100 -7 0
-101 -8 0
-102 -9 0
-139 -7 0
-140 -8 0
-141 -9 0
-157 -7 0
-158 -8 0
-159 -9 0
-28 -10 0
-29 -11 0
-30 -12 0
-46 -10 0
-47 -11 0
-48 -12 0
-217 -10 0
-218 -11 0
-219 -12 0
-40 -13 0
-41 -14 0
-42 -15 0
-61 -13 0
-62 -14 0
-63 -15 0
-100 -13 0
-101 -14 0
-102 -15 0
-22 -16 0
-23 -17 0
-24 -18 0
-64 -16 0
-65 -17 0
-66 -18 0
-103 -16 0
-104 -17 0
-105 -18 0
-172 -16 0
-173 -17 0
-174 -18 0
-31 -19 0
-32 -20 0
-33 -21 0
-67 -19 0
-68 -20 0
-69 -21 0
-94 -19 0
-95 -20 0
-96 -21 0
-130 -19 0
-131 -20 0
-132 -21 0
-142 -19 0
-143 -20 0
-144 -21 0
-154 -19 0
-155 -20 0
-156 -21 0
-79 -22 0
-80 -23 0
-81 -24 0
-142 -22 0
-143 -23 0
-144 -24 0
-79 -25 0
-80 -26 0
-81 -27 0
-127 -25 0
-128 -26 0
-129 -27 0
-136 -25 0
-137 -26 0
-138 -27 0
-208 -25 0
-209 -26 0
-210 -27 0
-67 -28 0
-68 -29 0
-69 -30 0
-85 -28 0
-86 -29 0
-87 -30 0
-100 -28 0
-101 -29 0
-102 -30 0
-130 -28 0
-131 -29 0
-132 -30 0
-187 -28 0
-188 -29 0
-189 -30 0
-199 -28 0
-200 -29 0
-201 -30 0
-43 -31 0
-44 -32 0
-45 -33 0
-61 -31 0
-62 -32 0
-63 -33 0
-112 -31 0
-113 -32 0
-114 -33 0
-151 -31 0
-152 -32 0
-153 -33 0
-82 -34 0
-83 -35 0
-84 -36 0
-112 -34 0
-113 -35 0
-114 -36 0
-130 -34 0
-131 -35 0
-132 -36 0
-139 -34 0
-140 -35 0
-141 -36 0
-160 -34 0
-161 -35 0
-162 -36 0
-196 -34 0
-197 -35 0
-198 -36 0
-109 -37 0
-110 -38 0
-111 -39 0
-124 -37 0
-125 -38 0
-126 -39 0
-151 -37 0
-152 -38 0
-153 -39 0
-94 -40 0
-95 -41 0
-96 -42 0
-97 -40 0
-98 -41 0
-99 -42 0
-124 -40 0
-125 -41 0
-126 -42 0
-148 -40 0
-149 -41 0
-150 -42 0
-196 -40 0
-197 -41 0
-198 -42 0
-82 -43 0
-83 -44 0
-84 -45 0
-193 -43 0
-194 -44 0
-195 -45 0
-199 -43 0
-200 -44 0
-201 -45 0
-202 -43 0
-203 -44 0
-204 -45 0
-64 -46 0
-65 -47 0
-66 -48 0
-121 -46 0
-122 -47 0
-123 -48 0
-175 -46 0
-176 -47 0
-177 -48 0
-199 -46 0
-200 -47 0
-201 -48 0
-100 -49 0
-101 -50 0
-102 -51 0
-223 -49 0
-224 -50 0
-225 -51 0
-61 -52 0
-62 -53 0
-63 -54 0
-67 -52 0
-68 -53 0
-69 -54 0
-73 -52 0
-74 -53 0
-75 -54 0
-190 -52 0
-191 -53 0
-192 -54 0
-208 -52 0
-209 -53 0
-210 -54 0
-64 -55 0
-65 -56 0
-66 -57 0
-70 -55 0
-71 -56 0
-72 -57 0
-160 -55 0
-161 -56 0
-162 -57 0
-133 -58 0
-134 -59 0
-135 -60 0
-145 -58 0
-146 -59 0
-147 -60 0
-157 -58 0
-158 -59 0
-159 -60 0
-217 -58 0
-218 -59 0
-219 -60 0
-220 -58 0
-221 -59 0
-222 -60 0
-64 -61 0
-65 -62 0
-66 -63 0
-196 -61 0
-197 -62 0
-198 -63 0
-145 -64 0
-146 -65 0
-147 -66 0
-160 -64 0
-161 -65 0
-162 -66 0
-208 -64 0
-209 -65 0
-210 -66 0
-115 -67 0
-116 -68 0
-117 -69 0
-133 -67 0
-134 -68 0
-135 -69 0
-166 -67 0
-167 -68 0
-168 -69 0
-181 -67 0
-182 -68 0
-183 -69 0
-79 -70 0
-80 -71 0
-81 -72 0
-109 -70 0
-110 -71 0
-111 -72 0
-133 -70 0
-134 -71 0
-135 -72 0
-160 -70 0
-161 -71 0
-162 -72 0
-187 -70 0
-188 -71 0
-189 -72 0
-193 -73 0
-194 -74 0
-195 -75 0
-172 -76 0
-173 -77 0
-174 -78 0
-196 -76 0
-197 -77 0
-198 -78 0
-97 -79 0
-98 -80 0
-99 -81 0
-103 -79 0
-104 -80 0
-105 -81 0
-148 -79 0
-149 -80 0
-150 -81 0
-91 -82 0
-92 -83 0
-93 -84 0
-115 -82 0
-116 -83 0
-117 -84 0
-166 -82 0
-167 -83 0
-168 -84 0
-91 -85 0
-92 -86 0
-93 -87 0
-175 -85 0
-176 -86 0
-177 -87 0
-178 -85 0
-179 -86 0
-180 -87 0
-91 -88 0
-92 -89 0
-93 -90 0
-112 -88 0
-113 -89 0
-114 -90 0
-160 -88 0
-161 -89 0
-162 -90 0
-187 -88 0
-188 -89 0
-189 -90 0
-118 -91 0
-119 -92 0
-120 -93 0
-169 -91 0
-170 -92 0
-171 -93 0
-193 -91 0
-194 -92 0
-195 -93 0
-196 -91 0
-197 -92 0
-198 -93 0
-211 -91 0
-212 -92 0
-213 -93 0
-121 -94 0
-122 -95 0
-123 -96 0
-130 -94 0
-131 -95 0
-132 -96 0
-133 -94 0
-134 -95 0
-135 -96 0
-166 -94 0
-167 -95 0
-168 -96 0
-217 -94 0
-218 -95 0
-219 -96 0
-142 -97 0
-143 -98 0
-144 -99 0
-172 -97 0
-173 -98 0
-174 -99 0
-118 -100 0
-119 -101 0
-120 -102 0
-139 -100 0
-140 -101 0
-141 -102 0
-169 -100 0
-170 -101 0
-171 -102 0
-211 -100 0
-212 -101 0
-213 -102 0
-112 -103 0
-113 -104 0
-114 -105 0
-178 -103 0
-179 -104 0
-180 -105 0
-199 -103 0
-200 -104 0
-201 -105 0
-175 -106 0
-176 -107 0
-177 -108 0
-193 -106 0
-194 -107 0
-195 -108 0
-145 -112 0
-146 -113 0
-147 -114 0
-196 -112 0
-197 -113 0
-198 -114 0
-211 -112 0
-212 -113 0
-213 -114 0
-151 -115 0
-152 -116 0
-153 -117 0
-214 -115 0
-215 -116 0
-216 -117 0
-181 -118 0
-182 -119 0
-183 -120 0
-208 -118 0
-209 -119 0
-210 -120 0
-184 -121 0
-185 -122 0
-186 -123 0
-130 -124 0
-131 -125 0
-132 -126 0
-196 -124 0
-197 -125 0
-198 -126 0
-130 -127 0
-131 -128 0
-132 -129 0
-133 -127 0
-134 -128 0
-135 -129 0
-139 -127 0
-140 -128 0
-141 -129 0
-154 -127 0
-155 -128 0
-156 -129 0
-133 -130 0
-134 -131 0
-135 -132 0
-148 -133 0
-149 -134 0
-150 -135 0
-163 -133 0
-164 -134 0
-165 -135 0
-175 -136 0
-176 -137 0
-177 -138 0
-187 -136 0
-188 -137 0
-189 -138 0
-190 -136 0
-191 -137 0
-192 -138 0
-214 -136 0
-215 -137 0
-216 -138 0
-151 -139 0
-152 -140 0
-153 -141 0
-223 -139 0
-224 -140 0
-225 -141 0
-214 -142 0
-215 -143 0
-216 -144 0
-169 -148 0
-170 -149 0
-171 -150 0
-208 -148 0
-209 -149 0
-210 -150 0
-217 -151 0
-218 -152 0
-219 -153 0
-184 -154 0
-185 -155 0
-186 -156 0
-172 -157 0
-173 -158 0
-174 -159 0
-166 -160 0
-167 -161 0
-168 -162 0
-214 -160 0
-215 -161 0
-216 -162 0
-181 -163 0
-182 -164 0
-183 -165 0
-223 -163 0
-224 -164 0
-225 -165 0
-175 -166 0
-176 -167 0
-177 -168 0
-187 -166 0
-188 -167 0
-189 -168 0
-196 -169 0
-197 -170 0
-198 -171 0
-223 -172 0
-224 -173 0
-225 -174 0
-202 -175 0
-203 -176 0
-204 -177 0
-211 -175 0
-212 -176 0
-213 -177 0
-190 -178 0
-191 -179 0
-192 -180 0
-199 -178 0
-200 -179 0
-201 -180 0
-211 -187 0
-212 -188 0
-213 -189 0
-199 -190 0
-200 -191 0
-201 -192 0
-202 -190 0
-203 -191 0
-204 -192 0
-217 -199 0
-218 -200 0
-219 -201 0
-220 -208 0
-221 -209 0
-222 -210 0
-217 -214 0
-218 -215 0
-219 -216 0
-220 -214 0
-221 -215 0
-222 -216 0
